32      4       
10      10      10      10      
0       0       0       0       0       4       2       5       6       7       
6       1       1       0       1       3       3       11      31      
4       2       3       0       5       2       4       30      
10      8       6       1       0       5       8       17      21      27      28      
9       4       6       5       0       5       12      13      17      19      25      
1       2       0       7       4       3       9       17      27      
1       5       5       0       5       3       10      13      17      
4       6       2       0       3       2       9       29      
9       3       0       1       3       4       13      19      25      26      
5       5       0       5       5       4       14      19      25      27      
2       5       3       0       6       3       15      21      25      
10      4       6       0       5       5       18      21      24      26      28      
4       0       4       5       6       1       14      
5       4       4       8       0       1       15      
8       0       4       2       3       2       16      23      
10      0       6       5       2       2       18      24      
8       2       3       4       0       2       22      26      
10      3       5       0       3       1       20      
4       3       2       0       4       1       20      
7       4       0       2       2       1       22      
9       4       6       0       1       1       23      
4       3       0       1       4       1       32      
7       5       4       8       0       1       32      
3       0       4       4       3       1       32      
4       0       3       4       7       1       32      
3       0       3       6       4       1       32      
2       5       0       4       5       1       32      
10      6       0       2       3       1       32      
2       4       0       3       5       1       32      
5       0       4       4       7       1       32      
5       0       4       3       4       1       32      
0       0       0       0       0       0       
